
List of user-set options:

                                    Name   Value                used
                             alpha_for_y = safer-min-dual-infeas  yes
                  bound_mult_init_method = mu-based              yes
                           compl_inf_tol = 1e-06                 yes
                         constr_viol_tol = 1e-06                 yes
                        file_print_level = 5                     yes
                   hessian_approximation = limited-memory        yes
                           linear_solver = mumps                 yes
                                max_iter = 600                   yes
                                 mu_init = 0.1                   yes
                             mu_strategy = monotone              yes
                      nlp_scaling_method = gradient-based        yes
                             output_file = /Users/kabirkhwaja/Desktop/College/year5/AE588/assignments/final_project/ae588_project/dymos/dymos_rosenbrock2d_out/IPOPT.out  yes
                             print_level = 0                     yes
                      print_user_options = yes                   yes
                                      sb = yes                   yes
                                     tol = 1e-05                 yes
This is Ipopt version 3.14.13, running with linear solver MUMPS 5.2.1.

Number of nonzeros in equality constraint Jacobian...:        0
Number of nonzeros in inequality constraint Jacobian.:        2
Number of nonzeros in Lagrangian Hessian.............:        0

Total number of variables............................:        2
                     variables with only lower bounds:        0
                variables with lower and upper bounds:        2
                     variables with only upper bounds:        0
Total number of equality constraints.................:        0
Total number of inequality constraints...............:        1
        inequality constraints with only lower bounds:        0
   inequality constraints with lower and upper bounds:        0
        inequality constraints with only upper bounds:        0

iter    objective    inf_pr   inf_du lg(mu)  ||d||  lg(rg) alpha_du alpha_pr  ls
   0  1.6904000e+04 0.00e+00 1.00e+02  -1.0 0.00e+00    -  0.00e+00 0.00e+00   0
   1  1.2488702e+03 0.00e+00 4.53e+00  -1.0 1.00e+02    -  4.65e-01 3.28e-02f  5
   2  1.1244649e+03 0.00e+00 4.30e+00  -1.0 1.44e-01    -  1.00e+00 1.00e+00f  1
   3  2.9602125e+02 0.00e+00 2.20e+00  -1.0 1.66e+00    -  1.00e+00 1.00e+00f  1
   4  2.5610466e+01 0.00e+00 6.44e-01  -1.0 1.30e+00    -  1.00e+00 1.00e+00f  1
   5  3.5669380e-01 0.00e+00 2.21e-02  -1.7 5.09e-01    -  1.00e+00 1.00e+00f  1
   6  3.2498889e-01 0.00e+00 7.54e-03  -3.8 1.89e-02    -  1.00e+00 1.00e+00f  1
   7  3.2410223e-01 0.00e+00 7.89e-03  -3.8 1.01e-03    -  1.00e+00 1.00e+00f  1
   8  2.2125442e-01 0.00e+00 8.52e-03  -3.8 9.93e-02    -  1.00e+00 1.00e+00f  1
   9  1.8002314e-01 0.00e+00 2.37e-02  -3.8 6.91e-01    -  1.00e+00 1.25e-01f  4
iter    objective    inf_pr   inf_du lg(mu)  ||d||  lg(rg) alpha_du alpha_pr  ls
  10  1.3967314e-01 0.00e+00 1.25e-02  -3.8 3.70e-02    -  1.00e+00 1.00e+00f  1
  11  1.0201995e-01 0.00e+00 3.85e-02  -3.8 1.60e-01    -  1.00e+00 1.00e+00f  1
  12  5.6585146e-02 0.00e+00 9.33e-03  -3.8 2.82e-02    -  1.00e+00 1.00e+00f  1
  13  3.2129817e-02 0.00e+00 5.62e-03  -3.8 8.89e-02    -  1.00e+00 1.00e+00f  1
  14  2.4510304e-02 0.00e+00 1.98e-02  -3.8 1.63e-01    -  1.00e+00 5.00e-01f  2
  15  1.4995854e-02 0.00e+00 9.76e-03  -3.8 2.57e-02    -  1.00e+00 1.00e+00f  1
  16  5.1006204e-03 0.00e+00 8.22e-03  -3.8 9.49e-02    -  1.00e+00 1.00e+00f  1
  17  1.6663378e-03 0.00e+00 1.31e-03  -3.8 4.23e-02    -  1.00e+00 1.00e+00f  1
  18  1.1121122e-03 0.00e+00 8.57e-03  -5.7 7.84e-02    -  1.00e+00 1.00e+00f  1
  19  1.3166952e-04 0.00e+00 7.88e-04  -5.7 2.10e-02    -  1.00e+00 1.00e+00f  1
iter    objective    inf_pr   inf_du lg(mu)  ||d||  lg(rg) alpha_du alpha_pr  ls
  20  1.8133130e-05 0.00e+00 3.13e-05  -5.7 1.35e-02    -  1.00e+00 1.00e+00f  1
  21  7.2215880e-06 0.00e+00 5.82e-04  -5.7 1.14e-02    -  1.00e+00 1.00e+00f  1
  22  4.3651707e-06 0.00e+00 1.41e-04  -5.7 4.58e-03    -  1.00e+00 2.50e-01f  3
  23  3.6517055e-10 0.00e+00 4.57e-06  -5.7 4.05e-03    -  1.00e+00 1.00e+00f  1
  24  2.2580737e-12 0.00e+00 3.52e-07  -8.6 2.52e-05    -  1.00e+00 5.00e-01f  2

Number of Iterations....: 24

                                   (scaled)                 (unscaled)
Objective...............:   1.4471120937057625e-14    2.2580737110184715e-12
Dual infeasibility......:   3.5193716374196157e-07    5.4916275030295678e-05
Constraint violation....:   0.0000000000000000e+00    0.0000000000000000e+00
Variable bound violation:   0.0000000000000000e+00    0.0000000000000000e+00
Complementarity.........:   2.5068522659793648e-09    3.9116922758342007e-07
Overall NLP error.......:   3.5193716374196157e-07    5.4916275030295678e-05


Number of objective function evaluations             = 56
Number of objective gradient evaluations             = 25
Number of equality constraint evaluations            = 0
Number of inequality constraint evaluations          = 56
Number of equality constraint Jacobian evaluations   = 0
Number of inequality constraint Jacobian evaluations = 25
Number of Lagrangian Hessian evaluations             = 0
Total seconds in IPOPT                               = 0.138

EXIT: Optimal Solution Found.
